NAME : icw1483
COMMENT : Bonn VLSI data set with 1483 points
COMMENT : Uni Bonn, Research Institute for Discrete Math
COMMENT : Contributed by Andre Rohe
TYPE : TSP
DIMENSION : 1483
EDGE_WEIGHT_TYPE : EUC_2D
NODE_COORD_SECTION
1 0 106
2 0 109
3 0 11
4 0 113
5 0 120
6 0 123
7 0 127
8 0 134
9 0 137
10 0 141
11 0 145
12 0 148
13 0 15
14 0 151
15 0 155
16 0 162
17 0 165
18 0 169
19 0 176
20 0 179
21 0 186
22 0 190
23 0 193
24 0 197
25 0 200
26 0 204
27 0 211
28 0 214
29 0 218
30 0 22
31 0 221
32 0 228
33 0 235
34 0 242
35 0 249
36 0 25
37 0 29
38 0 32
39 0 36
40 0 39
41 0 43
42 0 50
43 0 53
44 0 54
45 0 57
46 0 64
47 0 67
48 0 7
49 0 71
50 0 78
51 0 8
52 0 81
53 0 85
54 0 92
55 0 95
56 0 99
57 2 0
58 2 101
59 2 103
60 2 105
61 2 107
62 2 109
63 2 11
64 2 112
65 2 116
66 2 123
67 2 128
68 2 13
69 2 134
70 2 140
71 2 142
72 2 149
73 2 157
74 2 160
75 2 162
76 2 165
77 2 166
78 2 168
79 2 17
80 2 170
81 2 171
82 2 173
83 2 175
84 2 176
85 2 178
86 2 181
87 2 183
88 2 185
89 2 187
90 2 189
91 2 19
92 2 190
93 2 191
94 2 194
95 2 197
96 2 200
97 2 206
98 2 209
99 2 211
100 2 213
101 2 216
102 2 217
103 2 218
104 2 222
105 2 234
106 2 24
107 2 241
108 2 246
109 2 251
110 2 264
111 2 29
112 2 31
113 2 33
114 2 35
115 2 36
116 2 38
117 2 39
118 2 41
119 2 42
120 2 44
121 2 46
122 2 52
123 2 55
124 2 57
125 2 60
126 2 62
127 2 67
128 2 69
129 2 72
130 2 74
131 2 79
132 2 83
133 2 85
134 2 88
135 2 90
136 2 93
137 2 95
138 2 97
139 2 99
140 3 0
141 3 264
142 4 0
143 4 264
144 5 0
145 5 100
146 5 104
147 5 108
148 5 112
149 5 121
150 5 124
151 5 128
152 5 138
153 5 161
154 5 165
155 5 167
156 5 170
157 5 172
158 5 175
159 5 177
160 5 179
161 5 182
162 5 187
163 5 195
164 5 201
165 5 203
166 5 207
167 5 214
168 5 222
169 5 226
170 5 23
171 5 230
172 5 25
173 5 255
174 5 259
175 5 264
176 5 35
177 5 38
178 5 40
179 5 55
180 5 57
181 5 8
182 5 89
183 5 93
184 5 96
185 6 0
186 7 0
187 8 0
188 9 0
189 9 159
190 9 168
191 9 173
192 9 180
193 9 185
194 9 33
195 9 36
196 9 87
197 9 94
198 10 123
199 10 127
200 10 159
201 10 166
202 10 168
203 10 171
204 10 173
205 10 176
206 10 178
207 10 180
208 10 185
209 10 194
210 10 200
211 10 206
212 10 213
213 10 221
214 10 24
215 10 33
216 10 36
217 10 39
218 10 54
219 10 87
220 10 94
221 11 123
222 11 127
223 11 136
224 11 159
225 11 166
226 11 168
227 11 171
228 11 173
229 11 176
230 11 178
231 11 180
232 11 185
233 11 190
234 11 194
235 11 200
236 11 202
237 11 206
238 11 21
239 11 213
240 11 217
241 11 221
242 11 224
243 11 24
244 11 253
245 11 33
246 11 36
247 11 39
248 11 46
249 11 54
250 11 87
251 11 94
252 12 118
253 12 227
254 12 256
255 12 5
256 15 121
257 15 124
258 15 128
259 15 167
260 15 172
261 15 177
262 15 179
263 15 195
264 15 201
265 15 203
266 15 207
267 15 214
268 15 222
269 15 230
270 15 25
271 15 259
272 15 40
273 15 55
274 15 57
275 15 8
276 17 11
277 17 116
278 17 13
279 17 134
280 17 140
281 17 142
282 17 157
283 17 17
284 17 19
285 17 197
286 17 209
287 17 211
288 17 234
289 17 241
290 17 246
291 17 251
292 17 29
293 17 31
294 17 42
295 17 43
296 17 44
297 17 52
298 17 60
299 17 62
300 17 67
301 17 69
302 17 72
303 17 74
304 17 79
305 17 83
306 17 85
307 18 149
308 18 191
309 18 218
310 18 46
311 25 100
312 25 102
313 25 110
314 25 115
315 25 118
316 25 121
317 25 123
318 25 124
319 25 129
320 25 13
321 25 140
322 25 141
323 25 142
324 25 145
325 25 146
326 25 147
327 25 149
328 25 151
329 25 152
330 25 155
331 25 157
332 25 160
333 25 162
334 25 164
335 25 165
336 25 166
337 25 167
338 25 169
339 25 172
340 25 174
341 25 177
342 25 179
343 25 18
344 25 182
345 25 184
346 25 187
347 25 189
348 25 191
349 25 193
350 25 199
351 25 201
352 25 205
353 25 206
354 25 207
355 25 209
356 25 21
357 25 211
358 25 212
359 25 214
360 25 215
361 25 217
362 25 219
363 25 221
364 25 223
365 25 225
366 25 227
367 25 229
368 25 23
369 25 231
370 25 232
371 25 236
372 25 237
373 25 238
374 25 241
375 25 248
376 25 250
377 25 26
378 25 28
379 25 32
380 25 34
381 25 36
382 25 38
383 25 40
384 25 41
385 25 43
386 25 45
387 25 47
388 25 49
389 25 55
390 25 58
391 25 6
392 25 65
393 25 69
394 25 70
395 25 80
396 25 95
397 25 97
398 28 0
399 28 106
400 28 130
401 28 132
402 28 135
403 28 137
404 28 152
405 28 156
406 28 161
407 28 173
408 28 178
409 28 188
410 28 192
411 28 211
412 28 213
413 28 220
414 28 223
415 28 226
416 28 231
417 28 235
418 28 254
419 28 258
420 28 37
421 28 41
422 28 45
423 28 53
424 28 55
425 28 73
426 28 75
427 29 0
428 30 0
429 31 0
430 31 149
431 31 38
432 32 0
433 32 149
434 32 152
435 32 154
436 32 159
437 32 171
438 32 176
439 32 186
440 32 209
441 32 221
442 32 224
443 32 229
444 32 232
445 32 264
446 32 38
447 32 41
448 32 43
449 33 0
450 33 129
451 33 150
452 33 154
453 33 159
454 33 171
455 33 176
456 33 186
457 33 209
458 33 212
459 33 219
460 33 221
461 33 224
462 33 229
463 33 232
464 33 240
465 33 264
466 33 36
467 33 39
468 33 43
469 33 54
470 33 77
471 34 0
472 34 104
473 34 120
474 34 129
475 34 131
476 34 134
477 34 149
478 34 154
479 34 159
480 34 171
481 34 176
482 34 186
483 34 195
484 34 209
485 34 212
486 34 219
487 34 221
488 34 224
489 34 229
490 34 232
491 34 240
492 34 252
493 34 264
494 34 36
495 34 38
496 34 43
497 34 51
498 34 54
499 34 72
500 34 77
501 35 0
502 35 232
503 35 255
504 35 264
505 36 0
506 37 0
507 38 130
508 38 132
509 38 135
510 38 137
511 38 151
512 38 213
513 38 220
514 38 235
515 38 258
516 38 37
517 38 40
518 38 55
519 38 73
520 38 75
521 39 241
522 40 100
523 40 102
524 40 110
525 40 115
526 40 118
527 40 13
528 40 140
529 40 145
530 40 165
531 40 166
532 40 167
533 40 169
534 40 18
535 40 182
536 40 184
537 40 205
538 40 21
539 40 215
540 40 217
541 40 23
542 40 237
543 40 238
544 40 248
545 40 250
546 40 26
547 40 28
548 40 32
549 40 34
550 40 47
551 40 49
552 40 58
553 40 6
554 40 70
555 40 95
556 40 97
557 41 121
558 41 122
559 41 123
560 41 141
561 41 146
562 41 206
563 41 233
564 41 234
565 41 65
566 48 10
567 48 101
568 48 104
569 48 106
570 48 108
571 48 110
572 48 112
573 48 114
574 48 117
575 48 119
576 48 121
577 48 123
578 48 125
579 48 127
580 48 166
581 48 168
582 48 170
583 48 173
584 48 175
585 48 177
586 48 179
587 48 181
588 48 183
589 48 189
590 48 202
591 48 203
592 48 204
593 48 206
594 48 208
595 48 209
596 48 210
597 48 212
598 48 214
599 48 215
600 48 216
601 48 217
602 48 22
603 48 220
604 48 222
605 48 224
606 48 226
607 48 227
608 48 229
609 48 230
610 48 231
611 48 233
612 48 235
613 48 236
614 48 238
615 48 239
616 48 24
617 48 240
618 48 241
619 48 244
620 48 246
621 48 256
622 48 258
623 48 26
624 48 28
625 48 31
626 48 33
627 48 35
628 48 37
629 48 42
630 48 44
631 48 46
632 48 47
633 48 48
634 48 49
635 48 51
636 48 55
637 48 56
638 48 57
639 48 6
640 48 60
641 48 67
642 48 71
643 48 75
644 48 87
645 48 89
646 48 91
647 48 93
648 48 95
649 48 97
650 48 99
651 51 100
652 51 104
653 51 106
654 51 108
655 51 11
656 51 110
657 51 112
658 51 114
659 51 117
660 51 119
661 51 121
662 51 123
663 51 125
664 51 127
665 51 13
666 51 130
667 51 132
668 51 134
669 51 139
670 51 145
671 51 151
672 51 157
673 51 16
674 51 164
675 51 166
676 51 168
677 51 170
678 51 173
679 51 175
680 51 177
681 51 179
682 51 18
683 51 181
684 51 183
685 51 186
686 51 193
687 51 196
688 51 200
689 51 208
690 51 214
691 51 220
692 51 223
693 51 226
694 51 228
695 51 23
696 51 238
697 51 245
698 51 251
699 51 27
700 51 31
701 51 35
702 51 40
703 51 43
704 51 60
705 51 62
706 51 65
707 51 67
708 51 69
709 51 75
710 51 78
711 51 81
712 51 83
713 51 88
714 51 92
715 51 96
716 54 233
717 54 36
718 55 136
719 55 206
720 55 21
721 55 212
722 55 224
723 55 233
724 55 236
725 55 243
726 55 33
727 55 36
728 55 41
729 55 86
730 56 10
731 56 103
732 56 116
733 56 136
734 56 165
735 56 172
736 56 206
737 56 21
738 56 212
739 56 219
740 56 222
741 56 224
742 56 227
743 56 234
744 56 236
745 56 243
746 56 30
747 56 33
748 56 36
749 56 41
750 56 59
751 56 66
752 56 74
753 56 86
754 57 10
755 57 103
756 57 116
757 57 12
758 57 129
759 57 136
760 57 15
761 57 165
762 57 172
763 57 185
764 57 191
765 57 194
766 57 206
767 57 21
768 57 212
769 57 219
770 57 222
771 57 224
772 57 227
773 57 233
774 57 236
775 57 243
776 57 252
777 57 30
778 57 33
779 57 36
780 57 41
781 57 59
782 57 63
783 57 66
784 57 74
785 57 77
786 57 80
787 57 86
788 58 136
789 58 161
790 58 248
791 58 36
792 61 104
793 61 106
794 61 108
795 61 11
796 61 110
797 61 112
798 61 114
799 61 117
800 61 119
801 61 121
802 61 123
803 61 125
804 61 127
805 61 13
806 61 130
807 61 132
808 61 134
809 61 139
810 61 145
811 61 151
812 61 157
813 61 16
814 61 164
815 61 166
816 61 168
817 61 170
818 61 173
819 61 175
820 61 177
821 61 179
822 61 18
823 61 181
824 61 183
825 61 186
826 61 220
827 61 223
828 61 228
829 61 235
830 61 251
831 61 31
832 61 60
833 61 62
834 61 67
835 61 69
836 61 75
837 61 78
838 61 81
839 61 83
840 63 189
841 63 202
842 63 210
843 63 216
844 63 217
845 63 230
846 63 231
847 63 240
848 63 241
849 63 55
850 63 6
851 63 71
852 64 137
853 64 139
854 64 141
855 64 143
856 64 145
857 64 147
858 64 149
859 64 151
860 64 153
861 64 155
862 64 156
863 64 158
864 64 159
865 64 203
866 64 38
867 64 39
868 64 47
869 64 48
870 64 49
871 64 51
872 64 56
873 70 0
874 71 0
875 71 107
876 71 108
877 71 109
878 71 11
879 71 111
880 71 114
881 71 115
882 71 116
883 71 119
884 71 120
885 71 121
886 71 124
887 71 125
888 71 126
889 71 13
890 71 131
891 71 132
892 71 133
893 71 136
894 71 138
895 71 139
896 71 142
897 71 143
898 71 16
899 71 18
900 71 19
901 71 190
902 71 193
903 71 198
904 71 199
905 71 201
906 71 202
907 71 203
908 71 204
909 71 206
910 71 209
911 71 21
912 71 211
913 71 212
914 71 215
915 71 216
916 71 217
917 71 221
918 71 223
919 71 225
920 71 227
921 71 228
922 71 229
923 71 23
924 71 230
925 71 232
926 71 234
927 71 236
928 71 239
929 71 240
930 71 241
931 71 242
932 71 248
933 71 250
934 71 27
935 71 29
936 71 30
937 71 32
938 71 33
939 71 35
940 71 36
941 71 38
942 71 40
943 71 42
944 71 43
945 71 44
946 71 45
947 71 50
948 71 52
949 71 54
950 71 58
951 71 59
952 71 60
953 71 67
954 74 106
955 74 117
956 74 122
957 74 127
958 74 139
959 74 143
960 74 149
961 74 157
962 74 165
963 74 173
964 74 18
965 74 181
966 74 184
967 74 188
968 74 191
969 74 197
970 74 20
971 74 211
972 74 213
973 74 222
974 74 227
975 74 23
976 74 234
977 74 236
978 74 238
979 74 253
980 74 256
981 74 258
982 74 26
983 74 29
984 74 32
985 74 35
986 74 37
987 74 40
988 74 51
989 74 57
990 74 65
991 74 67
992 74 69
993 74 7
994 74 74
995 74 82
996 74 90
997 74 98
998 77 100
999 77 114
1000 77 136
1001 77 145
1002 77 151
1003 77 159
1004 77 167
1005 77 175
1006 77 70
1007 77 76
1008 77 84
1009 77 92
1010 78 100
1011 78 114
1012 78 136
1013 78 139
1014 78 143
1015 78 145
1016 78 151
1017 78 159
1018 78 16
1019 78 167
1020 78 175
1021 78 209
1022 78 21
1023 78 220
1024 78 225
1025 78 232
1026 78 27
1027 78 30
1028 78 33
1029 78 38
1030 78 49
1031 78 54
1032 78 70
1033 78 76
1034 78 84
1035 78 92
1036 79 100
1037 79 114
1038 79 137
1039 79 141
1040 79 145
1041 79 151
1042 79 159
1043 79 16
1044 79 167
1045 79 175
1046 79 19
1047 79 190
1048 79 209
1049 79 21
1050 79 212
1051 79 220
1052 79 225
1053 79 232
1054 79 235
1055 79 27
1056 79 30
1057 79 33
1058 79 36
1059 79 38
1060 79 49
1061 79 54
1062 79 66
1063 79 70
1064 79 76
1065 79 84
1066 79 92
1067 80 101
1068 80 114
1069 80 132
1070 80 136
1071 80 145
1072 80 152
1073 80 16
1074 80 160
1075 80 168
1076 80 176
1077 80 182
1078 80 19
1079 80 190
1080 80 195
1081 80 209
1082 80 21
1083 80 212
1084 80 216
1085 80 220
1086 80 225
1087 80 232
1088 80 235
1089 80 24
1090 80 244
1091 80 252
1092 80 255
1093 80 27
1094 80 30
1095 80 33
1096 80 36
1097 80 38
1098 80 49
1099 80 5
1100 80 54
1101 80 66
1102 80 70
1103 80 77
1104 80 85
1105 80 93
1106 81 145
1107 81 54
1108 81 62
1109 81 70
1110 84 117
1111 84 122
1112 84 127
1113 84 138
1114 84 142
1115 84 191
1116 84 20
1117 84 213
1118 84 236
1119 84 238
1120 84 253
1121 84 256
1122 84 258
1123 84 37
1124 84 57
1125 84 65
1126 84 67
1127 84 69
1128 86 11
1129 86 13
1130 86 193
1131 86 199
1132 86 229
1133 86 230
1134 86 240
1135 86 241
1136 86 242
1137 86 59
1138 86 60
1139 87 100
1140 87 104
1141 87 105
1142 87 111
1143 87 133
1144 87 147
1145 87 149
1146 87 151
1147 87 155
1148 87 157
1149 87 159
1150 87 163
1151 87 165
1152 87 167
1153 87 171
1154 87 173
1155 87 175
1156 87 179
1157 87 180
1158 87 202
1159 87 203
1160 87 204
1161 87 206
1162 87 217
1163 87 42
1164 87 44
1165 87 45
1166 87 55
1167 87 56
1168 87 72
1169 87 74
1170 87 76
1171 87 80
1172 87 82
1173 87 84
1174 87 88
1175 87 90
1176 87 92
1177 87 96
1178 87 98
1179 94 109
1180 94 110
1181 94 111
1182 94 114
1183 94 115
1184 94 116
1185 94 119
1186 94 120
1187 94 121
1188 94 126
1189 94 128
1190 94 130
1191 94 132
1192 94 134
1193 94 135
1194 94 138
1195 94 145
1196 94 149
1197 94 150
1198 94 151
1199 94 158
1200 94 159
1201 94 16
1202 94 161
1203 94 163
1204 94 165
1205 94 174
1206 94 176
1207 94 178
1208 94 18
1209 94 180
1210 94 181
1211 94 184
1212 94 185
1213 94 186
1214 94 188
1215 94 19
1216 94 190
1217 94 193
1218 94 195
1219 94 197
1220 94 200
1221 94 202
1222 94 203
1223 94 21
1224 94 222
1225 94 223
1226 94 224
1227 94 226
1228 94 228
1229 94 229
1230 94 23
1231 94 231
1232 94 232
1233 94 234
1234 94 236
1235 94 238
1236 94 24
1237 94 241
1238 94 243
1239 94 249
1240 94 25
1241 94 256
1242 94 26
1243 94 28
1244 94 29
1245 94 30
1246 94 31
1247 94 34
1248 94 35
1249 94 36
1250 94 37
1251 94 41
1252 94 42
1253 94 43
1254 94 49
1255 94 51
1256 94 52
1257 94 54
1258 94 56
1259 94 60
1260 94 62
1261 94 64
1262 94 66
1263 94 68
1264 94 70
1265 94 72
1266 94 74
1267 94 76
1268 94 78
1269 94 80
1270 94 82
1271 94 89
1272 94 95
1273 97 112
1274 97 117
1275 97 12
1276 97 122
1277 97 126
1278 97 128
1279 97 130
1280 97 135
1281 97 140
1282 97 142
1283 97 169
1284 97 18
1285 97 181
1286 97 195
1287 97 197
1288 97 199
1289 97 20
1290 97 203
1291 97 209
1292 97 217
1293 97 23
1294 97 231
1295 97 234
1296 97 241
1297 97 244
1298 97 246
1299 97 48
1300 97 51
1301 97 56
1302 97 58
1303 97 61
1304 97 65
1305 97 69
1306 97 73
1307 97 77
1308 97 8
1309 97 81
1310 97 95
1311 97 97
1312 100 109
1313 100 132
1314 100 178
1315 100 200
1316 100 205
1317 100 211
1318 100 219
1319 100 226
1320 100 52
1321 101 109
1322 101 12
1323 101 132
1324 101 135
1325 101 148
1326 101 16
1327 101 178
1328 101 181
1329 101 193
1330 101 200
1331 101 203
1332 101 205
1333 101 21
1334 101 211
1335 101 219
1336 101 226
1337 101 229
1338 101 232
1339 101 49
1340 101 5
1341 101 52
1342 101 59
1343 101 8
1344 102 10
1345 102 109
1346 102 125
1347 102 133
1348 102 137
1349 102 16
1350 102 179
1351 102 183
1352 102 19
1353 102 193
1354 102 196
1355 102 201
1356 102 205
1357 102 21
1358 102 211
1359 102 219
1360 102 227
1361 102 229
1362 102 232
1363 102 240
1364 102 243
1365 102 49
1366 102 53
1367 102 55
1368 102 59
1369 102 6
1370 102 94
1371 103 102
1372 103 109
1373 103 125
1374 103 132
1375 103 139
1376 103 152
1377 103 16
1378 103 163
1379 103 167
1380 103 170
1381 103 178
1382 103 19
1383 103 190
1384 103 193
1385 103 196
1386 103 200
1387 103 205
1388 103 21
1389 103 212
1390 103 220
1391 103 226
1392 103 229
1393 103 232
1394 103 240
1395 103 243
1396 103 245
1397 103 42
1398 103 46
1399 103 49
1400 103 52
1401 103 55
1402 103 59
1403 103 94
1404 104 205
1405 107 11
1406 107 112
1407 107 117
1408 107 122
1409 107 126
1410 107 128
1411 107 130
1412 107 134
1413 107 138
1414 107 140
1415 107 142
1416 107 180
1417 107 184
1418 107 197
1419 107 199
1420 107 20
1421 107 202
1422 107 228
1423 107 241
1424 107 244
1425 107 246
1426 107 54
1427 107 56
1428 107 58
1429 107 7
1430 107 95
1431 107 97
1432 109 145
1433 109 159
1434 109 160
1435 109 161
1436 109 186
1437 109 187
1438 109 188
1439 109 223
1440 109 224
1441 109 236
1442 109 238
1443 109 249
1444 109 25
1445 109 26
1446 109 29
1447 109 30
1448 109 31
1449 110 190
1450 110 206
1451 110 207
1452 110 209
1453 110 210
1454 110 211
1455 110 214
1456 110 215
1457 110 217
1458 110 218
1459 110 219
1460 110 256
1461 110 34
1462 110 36
1463 110 37
1464 110 43
1465 110 89
1466 128 109
1467 128 11
1468 128 123
1469 128 137
1470 128 15
1471 128 151
1472 128 165
1473 128 179
1474 128 193
1475 128 221
1476 128 235
1477 128 249
1478 128 25
1479 128 39
1480 128 53
1481 128 67
1482 128 81
1483 128 95
EOF
